; chc-comp19-benchmarks/./lia-lin-arr/chc-lia-lin-arr-0113_000.smt2
(set-logic HORN)

(declare-fun |ULTIMATE.start_L11| ( Int Int Int Int Int Int Int Int Int Int Int Int Int Int Int Int Int Int Int (Array Int Int) (Array Int Int) (Array Int (Array Int Int)) (Array Int (Array Int Int)) Int Int (Array Int Int) (Array Int Int) Int Int Int Int Int Int Int Int Int Int Int Int Int Bool ) Bool)
(declare-fun |ULTIMATE.start_L27| ( Int Int Int Int Int Int Int Int Int Int Int Int Int Int Int Int Int Int Int (Array Int Int) (Array Int Int) (Array Int (Array Int Int)) (Array Int (Array Int Int)) Int Int (Array Int Int) (Array Int Int) Int Int Int Int Int Int Int Int Int Int Int Int Int Bool ) Bool)
(declare-fun |ULTIMATE.start_L5| ( Int Int Int Int Int Int Int Int Int Int Int Int Int Int Int Int Int Int Int (Array Int Int) (Array Int Int) (Array Int (Array Int Int)) (Array Int (Array Int Int)) Int Int (Array Int Int) (Array Int Int) Int Int Int Int Int Int Int Int Int Int Int Int Int Bool ) Bool)
(declare-fun |ULTIMATE.start_L6| ( Int Int Int Int Int Int Int Int Int Int Int Int Int Int Int Int Int Int Int (Array Int Int) (Array Int Int) (Array Int (Array Int Int)) (Array Int (Array Int Int)) Int Int (Array Int Int) (Array Int Int) Int Int Int Int Int Int Int Int Int Int Int Int Int Bool ) Bool)
(declare-fun |ULTIMATE.start_ULTIMATE.startEXIT| ( Int Int Int Int Int Int Int Int Int Int Int Int Int Int Int Int Int Int Int (Array Int Int) (Array Int Int) (Array Int (Array Int Int)) (Array Int (Array Int Int)) Int Int (Array Int Int) (Array Int Int) Int Int Int Int Int Int Int Int Int Int Int Int Int Bool ) Bool)
(declare-fun |ULTIMATE.start_L-1| ( Int Int Int Int Int Int Int Int Int Int Int Int Int Int Int Int Int Int Int (Array Int Int) (Array Int Int) (Array Int (Array Int Int)) (Array Int (Array Int Int)) Int Int (Array Int Int) (Array Int Int) Int Int Int Int Int Int Int Int Int Int Int Int Int Bool ) Bool)
(declare-fun |ULTIMATE.start_ULTIMATE.startENTRY| ( Int Int Int Int Int Int Int Int Int Int Int Int Int Int Int Int Int Int Int (Array Int Int) (Array Int Int) (Array Int (Array Int Int)) (Array Int (Array Int Int)) Int Int (Array Int Int) (Array Int Int) Int Int Int Int Int Int Int Int Int Int Int Int Int Bool ) Bool)
(declare-fun |ULTIMATE.start_ULTIMATE.startFINAL| ( Int Int Int Int Int Int Int Int Int Int Int Int Int Int Int Int Int Int Int (Array Int Int) (Array Int Int) (Array Int (Array Int Int)) (Array Int (Array Int Int)) Int Int (Array Int Int) (Array Int Int) Int Int Int Int Int Int Int Int Int Int Int Int Int Bool ) Bool)

(assert
  (forall ( (A Int) (B Int) (C Int) (D Int) (E Int) (F Int) (G Int) (H Int) (I Int) (J Int) (K Int) (L Int) (M Int) (N Int) (O Int) (P Int) (Q Int) (R Int) (S Int) (T (Array Int Int)) (U (Array Int Int)) (V (Array Int (Array Int Int))) (W (Array Int (Array Int Int))) (X Int) (Y Int) (Z (Array Int Int)) (A1 (Array Int Int)) (B1 Int) (C1 Int) (D1 Int) (E1 Int) (F1 Int) (G1 Int) (H1 Int) (I1 Int) (J1 Int) (K1 Int) (L1 Int) (M1 Int) (N1 Int) (O1 Bool) (P1 Int) (Q1 Int) (R1 Int) (S1 Int) (T1 Int) (U1 Int) (V1 Int) (W1 Int) (X1 Int) (Y1 (Array Int Int)) (Z1 Int) (A2 (Array Int Int)) ) 
    (=>
      (and
        (ULTIMATE.start_ULTIMATE.startENTRY
  P1
  B
  Q1
  D
  R1
  F
  S1
  H
  T1
  J
  U1
  L
  V1
  N
  O
  W1
  Q
  X1
  S
  Y1
  U
  V
  W
  Z1
  Y
  A2
  A1
  B1
  C1
  D1
  E1
  F1
  G1
  H1
  I1
  J1
  K1
  L1
  M1
  N1
  O1)
        (let ((a!1 (= 0 (select (store (store Y1 0 0) E 1) I)))
      (a!2 (= (store (store (store Y1 0 0) E 1) I 1) T)))
(let ((a!3 (and (not (<= O E))
                (not (<= O I))
                (= A 0)
                (= C 0)
                (not (= E 0))
                (= G 0)
                (not (= I 0))
                (= K 0)
                (= M 0)
                (= X 0)
                (= R 0)
                (= P 0)
                (= 0 (select (store Y1 0 0) E))
                a!1
                (= 0 (select (select V E) X))
                (= (select (select V I) R) 0)
                (= Z (store (store A2 E 4) I 4))
                a!2)))
  (or O1 a!3)))
      )
      (ULTIMATE.start_L-1
  A
  B
  C
  D
  E
  F
  G
  H
  I
  J
  K
  L
  M
  N
  O
  P
  Q
  R
  S
  T
  U
  V
  W
  X
  Y
  Z
  A1
  B1
  C1
  D1
  E1
  F1
  G1
  H1
  I1
  J1
  K1
  L1
  M1
  N1
  O1)
    )
  )
)
(assert
  (forall ( (A Int) (B Int) (C Int) (D Int) (E Int) (F Int) (G Int) (H Int) (I Int) (J Int) (K Int) (L Int) (M Int) (N Int) (O Int) (P Int) (Q Int) (R Int) (S Int) (T (Array Int Int)) (U (Array Int Int)) (V (Array Int (Array Int Int))) (W (Array Int (Array Int Int))) (X Int) (Y Int) (Z (Array Int Int)) (A1 (Array Int Int)) (B1 Int) (C1 Int) (D1 Int) (E1 Int) (F1 Int) (G1 Int) (H1 Int) (I1 Int) (J1 Int) (K1 Int) (L1 Int) (M1 Int) (N1 Int) (O1 Bool) (P1 Int) (Q1 Int) (R1 Int) (S1 Int) (T1 (Array Int (Array Int Int))) (U1 Int) (V1 Int) (W1 Int) (X1 Int) (Y1 Int) (Z1 Int) (A2 Int) (B2 Int) (C2 Int) (D2 Int) (E2 Int) (F2 Int) ) 
    (=>
      (and
        (ULTIMATE.start_L-1
  P1
  B
  Q1
  D
  E
  F
  G
  H
  I
  J
  K
  L
  R1
  N
  O
  S1
  Q
  R
  S
  T
  U
  T1
  W
  X
  Y
  Z
  A1
  U1
  V1
  W1
  E1
  X1
  Y1
  Z1
  A2
  B2
  C2
  D2
  E2
  F2
  O1)
        (let ((a!1 (select (store T1 E (store (select T1 E) X 0)) I)))
(let ((a!2 (store (store T1 E (store (select T1 E) X 0)) I (store a!1 R 1))))
(let ((a!3 (store a!2 P (store (select a!2 P) A (select (select a!2 M) C)))))
(let ((a!4 (and (= A X)
                (= M I)
                (= P E)
                (= B1 X)
                (= D1 B1)
                (= G1 R)
                (= J1 N1)
                (= F1 G1)
                (= C1 M1)
                (= M1 E)
                (= N1 I)
                (= C R)
                (= (select (select V J1) F1) H1)
                (= (select (select V C1) D1) I1)
                (= a!3 V))))
  (or O1 a!4)))))
      )
      (ULTIMATE.start_L5
  A
  B
  C
  D
  E
  F
  G
  H
  I
  J
  K
  L
  M
  N
  O
  P
  Q
  R
  S
  T
  U
  V
  W
  X
  Y
  Z
  A1
  B1
  C1
  D1
  E1
  F1
  G1
  H1
  I1
  J1
  K1
  L1
  M1
  N1
  O1)
    )
  )
)
(assert
  (forall ( (A Int) (B Int) (C Int) (D Int) (E Int) (F Int) (G Int) (H Int) (I Int) (J Int) (K Int) (L Int) (M Int) (N Int) (O Int) (P Int) (Q Int) (R Int) (S Int) (T (Array Int Int)) (U (Array Int Int)) (V (Array Int (Array Int Int))) (W (Array Int (Array Int Int))) (X Int) (Y Int) (Z (Array Int Int)) (A1 (Array Int Int)) (B1 Int) (C1 Int) (D1 Int) (E1 Int) (F1 Int) (G1 Int) (H1 Int) (I1 Int) (J1 Int) (K1 Int) (L1 Int) (M1 Int) (N1 Int) (O1 Bool) (P1 Int) (Q1 Int) ) 
    (=>
      (and
        (ULTIMATE.start_L5
  A
  B
  C
  D
  E
  F
  G
  H
  I
  J
  K
  L
  M
  N
  O
  P
  Q
  R
  S
  T
  U
  V
  W
  X
  Y
  Z
  A1
  B1
  C1
  D1
  E1
  F1
  G1
  P1
  Q1
  J1
  K1
  L1
  M1
  N1
  O1)
        (or O1 (not (= P1 Q1)))
      )
      (ULTIMATE.start_L6
  A
  B
  C
  D
  E
  F
  G
  H
  I
  J
  K
  L
  M
  N
  O
  P
  Q
  R
  S
  T
  U
  V
  W
  X
  Y
  Z
  A1
  B1
  C1
  D1
  E1
  F1
  G1
  H1
  I1
  J1
  K1
  L1
  M1
  N1
  O1)
    )
  )
)
(assert
  (forall ( (A Int) (B Int) (C Int) (D Int) (E Int) (F Int) (G Int) (H Int) (I Int) (J Int) (K Int) (L Int) (M Int) (N Int) (O Int) (P Int) (Q Int) (R Int) (S Int) (T (Array Int Int)) (U (Array Int Int)) (V (Array Int (Array Int Int))) (W (Array Int (Array Int Int))) (X Int) (Y Int) (Z (Array Int Int)) (A1 (Array Int Int)) (B1 Int) (C1 Int) (D1 Int) (E1 Int) (F1 Int) (G1 Int) (H1 Int) (I1 Int) (J1 Int) (K1 Int) (L1 Int) (M1 Int) (N1 Int) (O1 Bool) (P1 Int) (Q1 Int) ) 
    (=>
      (and
        (ULTIMATE.start_L5
  A
  B
  C
  D
  E
  F
  G
  H
  I
  J
  K
  L
  M
  N
  O
  P
  Q
  R
  S
  T
  U
  V
  W
  X
  Y
  Z
  A1
  B1
  C1
  D1
  E1
  F1
  G1
  P1
  Q1
  J1
  K1
  L1
  M1
  N1
  O1)
        (or O1 (= P1 Q1))
      )
      (ULTIMATE.start_L11
  A
  B
  C
  D
  E
  F
  G
  H
  I
  J
  K
  L
  M
  N
  O
  P
  Q
  R
  S
  T
  U
  V
  W
  X
  Y
  Z
  A1
  B1
  C1
  D1
  E1
  F1
  G1
  H1
  I1
  J1
  K1
  L1
  M1
  N1
  O1)
    )
  )
)
(assert
  (forall ( (A Int) (B Int) (C Int) (D Int) (E Int) (F Int) (G Int) (H Int) (I Int) (J Int) (K Int) (L Int) (M Int) (N Int) (O Int) (P Int) (Q Int) (R Int) (S Int) (T (Array Int Int)) (U (Array Int Int)) (V (Array Int (Array Int Int))) (W (Array Int (Array Int Int))) (X Int) (Y Int) (Z (Array Int Int)) (A1 (Array Int Int)) (B1 Int) (C1 Int) (D1 Int) (E1 Int) (F1 Int) (G1 Int) (H1 Int) (I1 Int) (J1 Int) (K1 Int) (L1 Int) (M1 Int) (N1 Int) (O1 Bool) (P1 Bool) ) 
    (=>
      (and
        (ULTIMATE.start_L6
  A
  B
  C
  D
  E
  F
  G
  H
  I
  J
  K
  L
  M
  N
  O
  P
  Q
  R
  S
  T
  U
  V
  W
  X
  Y
  Z
  A1
  B1
  C1
  D1
  E1
  F1
  G1
  H1
  I1
  J1
  K1
  L1
  M1
  N1
  P1)
        (= O1 true)
      )
      (ULTIMATE.start_ULTIMATE.startEXIT
  A
  B
  C
  D
  E
  F
  G
  H
  I
  J
  K
  L
  M
  N
  O
  P
  Q
  R
  S
  T
  U
  V
  W
  X
  Y
  Z
  A1
  B1
  C1
  D1
  E1
  F1
  G1
  H1
  I1
  J1
  K1
  L1
  M1
  N1
  O1)
    )
  )
)
(assert
  (forall ( (A Int) (B Int) (C Int) (D Int) (E Int) (F Int) (G Int) (H Int) (I Int) (J Int) (K Int) (L Int) (M Int) (N Int) (O Int) (P Int) (Q Int) (R Int) (S Int) (T (Array Int Int)) (U (Array Int Int)) (V (Array Int (Array Int Int))) (W (Array Int (Array Int Int))) (X Int) (Y Int) (Z (Array Int Int)) (A1 (Array Int Int)) (B1 Int) (C1 Int) (D1 Int) (E1 Int) (F1 Int) (G1 Int) (H1 Int) (I1 Int) (J1 Int) (K1 Int) (L1 Int) (M1 Int) (N1 Int) (O1 Bool) ) 
    (=>
      (and
        (ULTIMATE.start_L6
  A
  B
  C
  D
  E
  F
  G
  H
  I
  J
  K
  L
  M
  N
  O
  P
  Q
  R
  S
  T
  U
  V
  W
  X
  Y
  Z
  A1
  B1
  C1
  D1
  E1
  F1
  G1
  H1
  I1
  J1
  K1
  L1
  M1
  N1
  O1)
        (= O1 true)
      )
      (ULTIMATE.start_L11
  A
  B
  C
  D
  E
  F
  G
  H
  I
  J
  K
  L
  M
  N
  O
  P
  Q
  R
  S
  T
  U
  V
  W
  X
  Y
  Z
  A1
  B1
  C1
  D1
  E1
  F1
  G1
  H1
  I1
  J1
  K1
  L1
  M1
  N1
  O1)
    )
  )
)
(assert
  (forall ( (A Int) (B Int) (C Int) (D Int) (E Int) (F Int) (G Int) (H Int) (I Int) (J Int) (K Int) (L Int) (M Int) (N Int) (O Int) (P Int) (Q Int) (R Int) (S Int) (T (Array Int Int)) (U (Array Int Int)) (V (Array Int (Array Int Int))) (W (Array Int (Array Int Int))) (X Int) (Y Int) (Z (Array Int Int)) (A1 (Array Int Int)) (B1 Int) (C1 Int) (D1 Int) (E1 Int) (F1 Int) (G1 Int) (H1 Int) (I1 Int) (J1 Int) (K1 Int) (L1 Int) (M1 Int) (N1 Int) (O1 Bool) (P1 Int) ) 
    (=>
      (and
        (ULTIMATE.start_L11
  A
  B
  C
  D
  E
  F
  G
  H
  I
  J
  K
  L
  M
  N
  O
  P
  Q
  R
  S
  T
  U
  V
  W
  X
  Y
  Z
  A1
  B1
  C1
  D1
  E1
  F1
  G1
  H1
  I1
  J1
  P1
  L1
  M1
  N1
  O1)
        (or O1 (= K1 0))
      )
      (ULTIMATE.start_L27
  A
  B
  C
  D
  E
  F
  G
  H
  I
  J
  K
  L
  M
  N
  O
  P
  Q
  R
  S
  T
  U
  V
  W
  X
  Y
  Z
  A1
  B1
  C1
  D1
  E1
  F1
  G1
  H1
  I1
  J1
  K1
  L1
  M1
  N1
  O1)
    )
  )
)
(assert
  (forall ( (A Int) (B Int) (C Int) (D Int) (E Int) (F Int) (G Int) (H Int) (I Int) (J Int) (K Int) (L Int) (M Int) (N Int) (O Int) (P Int) (Q Int) (R Int) (S Int) (T (Array Int Int)) (U (Array Int Int)) (V (Array Int (Array Int Int))) (W (Array Int (Array Int Int))) (X Int) (Y Int) (Z (Array Int Int)) (A1 (Array Int Int)) (B1 Int) (C1 Int) (D1 Int) (E1 Int) (F1 Int) (G1 Int) (H1 Int) (I1 Int) (J1 Int) (K1 Int) (L1 Int) (M1 Int) (N1 Int) (O1 Bool) (P1 Int) ) 
    (=>
      (and
        (ULTIMATE.start_L27
  A
  B
  C
  D
  E
  F
  G
  H
  I
  J
  K
  L
  M
  N
  O
  P
  Q
  R
  S
  T
  U
  V
  W
  X
  Y
  Z
  A1
  B1
  C1
  D1
  P1
  F1
  G1
  H1
  I1
  J1
  K1
  L1
  M1
  N1
  O1)
        (or O1 (= E1 K1))
      )
      (ULTIMATE.start_ULTIMATE.startFINAL
  A
  B
  C
  D
  E
  F
  G
  H
  I
  J
  K
  L
  M
  N
  O
  P
  Q
  R
  S
  T
  U
  V
  W
  X
  Y
  Z
  A1
  B1
  C1
  D1
  E1
  F1
  G1
  H1
  I1
  J1
  K1
  L1
  M1
  N1
  O1)
    )
  )
)
(assert
  (forall ( (A Int) (B Int) (C Int) (D Int) (E Int) (F Int) (G Int) (H Int) (I Int) (J Int) (K Int) (L Int) (M Int) (N Int) (O Int) (P Int) (Q Int) (R Int) (S Int) (T (Array Int Int)) (U (Array Int Int)) (V (Array Int (Array Int Int))) (W (Array Int (Array Int Int))) (X Int) (Y Int) (Z (Array Int Int)) (A1 (Array Int Int)) (B1 Int) (C1 Int) (D1 Int) (E1 Int) (F1 Int) (G1 Int) (H1 Int) (I1 Int) (J1 Int) (K1 Int) (L1 Int) (M1 Int) (N1 Int) (O1 Bool) ) 
    (=>
      (and
        (ULTIMATE.start_ULTIMATE.startFINAL
  A
  B
  C
  D
  E
  F
  G
  H
  I
  J
  K
  L
  M
  N
  O
  P
  Q
  R
  S
  T
  U
  V
  W
  X
  Y
  Z
  A1
  B1
  C1
  D1
  E1
  F1
  G1
  H1
  I1
  J1
  K1
  L1
  M1
  N1
  O1)
        true
      )
      (ULTIMATE.start_ULTIMATE.startEXIT
  A
  B
  C
  D
  E
  F
  G
  H
  I
  J
  K
  L
  M
  N
  O
  P
  Q
  R
  S
  T
  U
  V
  W
  X
  Y
  Z
  A1
  B1
  C1
  D1
  E1
  F1
  G1
  H1
  I1
  J1
  K1
  L1
  M1
  N1
  O1)
    )
  )
)
(assert
  (forall ( (A Int) (B Int) (C Int) (D Int) (E Int) (F Int) (G Int) (H Int) (I Int) (J Int) (K Int) (L Int) (M Int) (N Int) (O Int) (P Int) (Q Int) (R Int) (S Int) (T (Array Int Int)) (U (Array Int Int)) (V (Array Int (Array Int Int))) (W (Array Int (Array Int Int))) (X Int) (Y Int) (Z (Array Int Int)) (A1 (Array Int Int)) (B1 Int) (C1 Int) (D1 Int) (E1 Int) (F1 Int) (G1 Int) (H1 Int) (I1 Int) (J1 Int) (K1 Int) (L1 Int) (M1 Int) (N1 Int) (O1 Bool) ) 
    (=>
      (and
        (and (= A1 Z)
     (= T U)
     (= B A)
     (= D C)
     (= F E)
     (= L K)
     (= N M)
     (= S R)
     (= Y X)
     (= P Q)
     (= I J)
     (= G H)
     (not O1)
     (= V W))
      )
      (ULTIMATE.start_ULTIMATE.startENTRY
  A
  B
  C
  D
  E
  F
  G
  H
  I
  J
  K
  L
  M
  N
  O
  P
  Q
  R
  S
  T
  U
  V
  W
  X
  Y
  Z
  A1
  B1
  C1
  D1
  E1
  F1
  G1
  H1
  I1
  J1
  K1
  L1
  M1
  N1
  O1)
    )
  )
)
(assert
  (forall ( (A Int) (B Int) (C Int) (D Int) (E Int) (F Int) (G Int) (H Int) (I Int) (J Int) (K Int) (L Int) (M Int) (N Int) (O Int) (P Int) (Q Int) (R Int) (S Int) (T (Array Int Int)) (U (Array Int Int)) (V (Array Int (Array Int Int))) (W (Array Int (Array Int Int))) (X Int) (Y Int) (Z (Array Int Int)) (A1 (Array Int Int)) (B1 Int) (C1 Int) (D1 Int) (E1 Int) (F1 Int) (G1 Int) (H1 Int) (I1 Int) (J1 Int) (K1 Int) (L1 Int) (M1 Int) (N1 Int) (O1 Bool) ) 
    (=>
      (and
        (ULTIMATE.start_ULTIMATE.startEXIT
  A
  B
  C
  D
  E
  F
  G
  H
  I
  J
  K
  L
  M
  N
  O
  P
  Q
  R
  S
  T
  U
  V
  W
  X
  Y
  Z
  A1
  B1
  C1
  D1
  E1
  F1
  G1
  H1
  I1
  J1
  K1
  L1
  M1
  N1
  O1)
        (= O1 true)
      )
      false
    )
  )
)

(check-sat)
(exit)
